c Command line: hgen8 165 20
p cnf 165 258
77 67 99 163 0
152 62 38 90 0
126 2 160 147 0
41 11 18 12 0
15 165 105 119 0
146 101 157 161 0
135 154 108 97 0
58 80 17 141 0
96 4 111 31 0
51 37 78 26 0
162 32 92 153 0
100 120 19 74 0
59 144 127 109 0
150 14 40 156 0
52 138 69 36 0
107 72 73 47 0
55 91 44 112 0
134 79 24 128 0
33 116 103 159 0
95 64 104 93 0
140 60 70 5 0
81 13 84 114 0
42 142 22 113 0
87 89 155 151 0
34 68 29 46 0
57 71 7 27 0
56 158 10 21 0
76 124 130 9 0
129 39 75 110 0
8 20 53 122 0
49 50 136 117 0
106 30 133 94 0
125 137 131 45 0
6 149 145 115 0
-2 -4 0
-2 -5 0
-4 -5 0
-6 -7 0
-6 -8 0
-6 -9 0
-6 -10 0
-7 -8 0
-7 -9 0
-7 -10 0
-8 -9 0
-8 -10 0
-9 -10 0
-11 -12 0
-11 -13 0
-11 -14 0
-11 -15 0
-12 -13 0
-12 -14 0
-12 -15 0
-13 -14 0
-13 -15 0
-14 -15 0
-17 -18 0
-17 -19 0
-17 -20 0
-18 -19 0
-18 -20 0
-19 -20 0
-21 -22 0
-21 -24 0
-22 -24 0
-26 -27 0
-26 -29 0
-26 -30 0
-27 -29 0
-27 -30 0
-29 -30 0
-31 -32 0
-31 -33 0
-31 -34 0
-32 -33 0
-32 -34 0
-33 -34 0
-36 -37 0
-36 -38 0
-36 -39 0
-36 -40 0
-37 -38 0
-37 -39 0
-37 -40 0
-38 -39 0
-38 -40 0
-39 -40 0
-41 -42 0
-41 -44 0
-41 -45 0
-42 -44 0
-42 -45 0
-44 -45 0
-46 -47 0
-46 -49 0
-46 -50 0
-47 -49 0
-47 -50 0
-49 -50 0
-51 -52 0
-51 -53 0
-51 -55 0
-52 -53 0
-52 -55 0
-53 -55 0
-56 -57 0
-56 -58 0
-56 -59 0
-56 -60 0
-57 -58 0
-57 -59 0
-57 -60 0
-58 -59 0
-58 -60 0
-59 -60 0
-62 -64 0
-67 -68 0
-67 -69 0
-67 -70 0
-68 -69 0
-68 -70 0
-69 -70 0
-71 -72 0
-71 -73 0
-71 -74 0
-71 -75 0
-72 -73 0
-72 -74 0
-72 -75 0
-73 -74 0
-73 -75 0
-74 -75 0
-76 -77 0
-76 -78 0
-76 -79 0
-76 -80 0
-77 -78 0
-77 -79 0
-77 -80 0
-78 -79 0
-78 -80 0
-79 -80 0
-81 -84 0
-87 -89 0
-87 -90 0
-89 -90 0
-91 -92 0
-91 -93 0
-91 -94 0
-91 -95 0
-92 -93 0
-92 -94 0
-92 -95 0
-93 -94 0
-93 -95 0
-94 -95 0
-96 -97 0
-96 -99 0
-96 -100 0
-97 -99 0
-97 -100 0
-99 -100 0
-101 -103 0
-101 -104 0
-101 -105 0
-103 -104 0
-103 -105 0
-104 -105 0
-106 -107 0
-106 -108 0
-106 -109 0
-106 -110 0
-107 -108 0
-107 -109 0
-107 -110 0
-108 -109 0
-108 -110 0
-109 -110 0
-111 -112 0
-111 -113 0
-111 -114 0
-111 -115 0
-112 -113 0
-112 -114 0
-112 -115 0
-113 -114 0
-113 -115 0
-114 -115 0
-116 -117 0
-116 -119 0
-116 -120 0
-117 -119 0
-117 -120 0
-119 -120 0
-122 -124 0
-122 -125 0
-124 -125 0
-126 -127 0
-126 -128 0
-126 -129 0
-126 -130 0
-127 -128 0
-127 -129 0
-127 -130 0
-128 -129 0
-128 -130 0
-129 -130 0
-131 -133 0
-131 -134 0
-131 -135 0
-133 -134 0
-133 -135 0
-134 -135 0
-136 -137 0
-136 -138 0
-136 -140 0
-137 -138 0
-137 -140 0
-138 -140 0
-141 -142 0
-141 -144 0
-141 -145 0
-142 -144 0
-142 -145 0
-144 -145 0
-146 -147 0
-146 -149 0
-146 -150 0
-147 -149 0
-147 -150 0
-149 -150 0
-151 -152 0
-151 -153 0
-151 -154 0
-151 -155 0
-152 -153 0
-152 -154 0
-152 -155 0
-153 -154 0
-153 -155 0
-154 -155 0
-156 -157 0
-156 -158 0
-156 -159 0
-156 -160 0
-157 -158 0
-157 -159 0
-157 -160 0
-158 -159 0
-158 -160 0
-159 -160 0
-161 -162 0
-161 -163 0
-161 -165 0
-162 -163 0
-162 -165 0
-163 -165 0
